p cnf 20 20
-18 -4 6 0
-3 -15 10 0
18 9 16 0
10 2 11 0
11 -1 -19 0
-3 -16 -8 0
10 -6 12 0
4 -12 -6 0
-2 -3 -7 0
-19 -9 -2 0
6 -3 -14 0
15 -1 -20 0
-19 -20 -6 0
18 -14 -12 0
-4 -16 20 0
-15 -5 10 0
9 -16 13 0
2 6 15 0
4 -1 -12 0
-14 -4 9 0
